2500
4 64 32 51 91 25 42 76 23 8 29 17 93 81 64 88 81 19 90 54 81 90 32 12 23 43 82 87 1 52 42 23 12 34 95 33 52 71 37 98 97 26 50 31 29 4 61 51 6 28 91 24 15 49 99 25 68 77 24 73 37 64 64 54 10 84 33 19 5 60 68 2 52 23 65 18 70 39 94 14 35 12 93 88 26 66 82 56 53 25 10 90 91 64 34 35 73 90 89 78 
45 24 29 35 7 31 27 11 48 30 35 45 32 15 6 23 11 21 45 17 7 18 46 14 33 1 18 16 9 27 25 35 14 13 9 11 28 21 4 13 13 35 36 8 50 14 49 21 2 18 32 35 27 23 28 30 5 19 13 41 24 50 20 41 40 8 26 35 43 17 12 36 41 18 5 48 20 26 42 34 37 11 28 35 12 9 50 26 14 50 49 28 45 10 14 36 43 43 21 45 
